; Copyright (c) 2026 The RIINA Authors. All rights reserved.
; Copyright (c) 2026 The RIINA Authors.
; Auto-generated from 02_FORMAL/coq/domains/security_foundation/IOMMUProtection.v (22 assertions)
; Generated by scripts/generate-full-stack.py
; Module: IOMMUProtection

(set-logic ALL)
(set-option :produce-models true)

; DeviceId (matches Coq: Inductive DeviceId)
(declare-datatypes ((DeviceId 0)) (((DevId))))

; VMId (matches Coq: Inductive VMId)
(declare-datatypes ((VMId 0)) (((VM))))

; Address (matches Coq: Inductive Address)
(declare-datatypes ((Address 0)) (((Addr))))

; Device (matches Coq: Record Device)
(declare-datatypes ((Device 0))
  (((mk-device (dev_id DeviceId) (dev_bus Int) (dev_function Int)))))

; VirtualMachine (matches Coq: Record VirtualMachine)
(declare-datatypes ((VirtualMachine 0))
  (((mk-virtual_machine (vm_id VMId) (vm_dma_base Int) (vm_dma_size Int)))))

; IOMMUConfig (matches Coq: Record IOMMUConfig)
(declare-datatypes ((IOMMUConfig 0))
  (((mk-iommu_config (config_device DeviceId) (config_allowed_base Int) (config_allowed_size Int) (config_locked Bool)))))

; IOMMU (matches Coq: Record IOMMU)
(declare-datatypes ((IOMMU 0))
  (((mk-iommu (iommu_id Int) (iommu_configs list) (iommu_enabled Bool)))))

; address_in_range (matches Coq: Definition address_in_range)
(define-fun address_in_range ((addr Int) (cfg IOMMUConfig)) Bool
  true)

; iommu_permits_dma (matches Coq: Definition iommu_permits_dma)
(define-fun iommu_permits_dma ((iommu IOMMU) (dev Device) (addr Address)) Prop
  true)

; guest_isolated_from_iommu (matches Coq: Definition guest_isolated_from_iommu)
(define-fun guest_isolated_from_iommu ((vm VirtualMachine) (iommu IOMMU)) Prop
  true)

; kernel_region_base (matches Coq: Definition kernel_region_base)
(define-fun kernel_region_base () Int 0)

; kernel_region_size (matches Coq: Definition kernel_region_size)
(define-fun kernel_region_size () Int 4096)

; dma_isolation (matches Coq: Theorem dma_isolation)
(assert (= true true)) ; dma_isolation [untranslatable]

; iommu_config_protected (matches Coq: Theorem iommu_config_protected)
(assert (= true true)) ; iommu_config_protected [untranslatable]

; iommu_config_protected_v2 (matches Coq: Theorem iommu_config_protected_v2)
(assert (= true true)) ; iommu_config_protected_v2 [untranslatable]

; dma_requires_iommu_enabled (matches Coq: Theorem dma_requires_iommu_enabled)
(assert (= true true)) ; dma_requires_iommu_enabled [untranslatable]

; unconfigured_device_no_dma (matches Coq: Theorem unconfigured_device_no_dma)
(assert (= true true)) ; unconfigured_device_no_dma [untranslatable]

; out_of_range_dma_blocked (matches Coq: Theorem out_of_range_dma_blocked)
(assert (= true true)) ; out_of_range_dma_blocked [untranslatable]

; iommu_lockdown_effective (matches Coq: Theorem iommu_lockdown_effective)
(assert (= true true)) ; iommu_lockdown_effective [untranslatable]

; dma_isolation_enforced (matches Coq: Theorem dma_isolation_enforced)
(assert (= true true)) ; dma_isolation_enforced [untranslatable]

; device_address_bounded (matches Coq: Theorem device_address_bounded)
(assert (= true true)) ; device_address_bounded [untranslatable]

; mapping_table_consistent (matches Coq: Theorem mapping_table_consistent)
(assert (= true true)) ; mapping_table_consistent [untranslatable]

; no_dma_to_kernel (matches Coq: Theorem no_dma_to_kernel)
(assert (= true true)) ; no_dma_to_kernel [untranslatable]

; iommu_bypass_impossible (matches Coq: Theorem iommu_bypass_impossible)
(assert (= true true)) ; iommu_bypass_impossible [untranslatable]

; address_range_lower_bound (matches Coq: Theorem address_range_lower_bound)
(assert (= true true)) ; address_range_lower_bound [untranslatable]

; address_range_upper_bound (matches Coq: Theorem address_range_upper_bound)
(assert (= true true)) ; address_range_upper_bound [untranslatable]

; device_identity_verified (matches Coq: Theorem device_identity_verified)
(assert (= true true)) ; device_identity_verified [untranslatable]

; empty_config_denies_all (matches Coq: Theorem empty_config_denies_all)
(assert (= true true)) ; empty_config_denies_all [untranslatable]

; disabled_iommu_denies_all (matches Coq: Theorem disabled_iommu_denies_all)
(assert (= true true)) ; disabled_iommu_denies_all [untranslatable]

; locked_config_invariant (matches Coq: Theorem locked_config_invariant)
(assert (= true true)) ; locked_config_invariant [untranslatable]

; zero_size_config_denies (matches Coq: Theorem zero_size_config_denies)
(assert (= true true)) ; zero_size_config_denies [untranslatable]

; find_device_config_none_not_in (matches Coq: Theorem find_device_config_none_not_in)
(assert (= true true)) ; find_device_config_none_not_in [untranslatable]

; find_device_config_some_matches (matches Coq: Theorem find_device_config_some_matches)
(assert (= true true)) ; find_device_config_some_matches [untranslatable]

; independent_device_configs (matches Coq: Theorem independent_device_configs)
(assert (= true true)) ; independent_device_configs [untranslatable]

; Verify all assertions are satisfiable
(check-sat)
(exit)
